
Gurobi 5.6.3 (win64) logging started 10/07/14 10:26:24


Gurobi 5.6.3 (win64) logging started 10/07/14 10:26:41


Gurobi 5.6.3 (win64) logging started 10/07/14 10:27:08


Gurobi 5.6.3 (win64) logging started 10/07/14 10:27:50


Gurobi 5.6.3 (win64) logging started 10/07/14 14:57:33


Gurobi 5.6.3 (win64) logging started 10/07/14 14:58:25


Gurobi 5.6.3 (win64) logging started 10/07/14 15:00:05


Gurobi 5.6.3 (win64) logging started 10/07/14 16:46:08


Gurobi 5.6.3 (win64) logging started 10/07/14 16:51:24


Gurobi 5.6.3 (win64) logging started 10/07/14 16:52:26


Gurobi 5.6.3 (win64) logging started 10/07/14 16:57:26


Gurobi 5.6.3 (win64) logging started 10/07/14 17:27:46


Gurobi 5.6.3 (win64) logging started 10/07/14 17:37:43


Gurobi 5.6.3 (win64) logging started 10/07/14 17:40:03


Gurobi 5.6.3 (win64) logging started 10/07/14 17:42:36


Gurobi 5.6.3 (win64) logging started 10/07/14 17:44:12


Gurobi 5.6.3 (win64) logging started 10/07/14 17:45:04


Gurobi 5.6.3 (win64) logging started 10/07/14 17:46:00


Gurobi 5.6.3 (win64) logging started 10/07/14 17:46:28


Gurobi 5.6.3 (win64) logging started 10/07/14 17:46:49


Gurobi 5.6.3 (win64) logging started 10/07/14 17:49:02


Gurobi 5.6.3 (win64) logging started 10/07/14 18:23:09


Gurobi 5.6.3 (win64) logging started 10/07/14 18:26:29


Gurobi 5.6.3 (win64) logging started 10/08/14 13:01:57


Gurobi 5.6.3 (win64) logging started 10/08/14 13:03:03


Gurobi 5.6.3 (win64) logging started 10/08/14 13:04:37


Gurobi 5.6.3 (win64) logging started 10/08/14 13:04:45


Gurobi 5.6.3 (win64) logging started 10/08/14 13:06:42


Gurobi 5.6.3 (win64) logging started 10/08/14 13:07:36


Gurobi 5.6.3 (win64) logging started 10/08/14 14:37:47


Gurobi 5.6.3 (win64) logging started 10/08/14 16:26:21


Gurobi 5.6.3 (win64) logging started 10/08/14 16:26:37


Gurobi 5.6.3 (win64) logging started 10/08/14 17:17:43


Gurobi 6.0.0 (win64) logging started 12/10/14 10:00:52


Gurobi 6.0.0 (win64) logging started 12/10/14 10:02:06


Gurobi 6.0.0 (win64) logging started 12/10/14 10:03:27


Gurobi 6.0.0 (win64) logging started 12/10/14 10:04:41


Gurobi 6.0.0 (win64) logging started 12/10/14 10:09:41


Gurobi 6.0.0 (win64) logging started 12/10/14 10:11:15


Gurobi 6.0.0 (win64) logging started 12/10/14 10:12:09


Gurobi 6.0.0 (win64) logging started 12/10/14 10:16:26


Gurobi 6.0.0 (win64) logging started 12/10/14 10:17:43


Gurobi 6.0.0 (win64) logging started 12/10/14 10:19:52


Gurobi 6.0.0 (win64) logging started 12/10/14 10:23:18


Gurobi 6.0.0 (win64) logging started 12/10/14 10:24:25


Gurobi 6.0.0 (win64) logging started 12/10/14 10:25:27


Gurobi 6.0.0 (win64) logging started 12/10/14 10:26:33


Gurobi 6.0.0 (win64) logging started 12/10/14 10:26:51


Gurobi 6.0.0 (win64) logging started 12/10/14 10:27:08


Gurobi 6.0.0 (win64) logging started 12/10/14 10:27:31


Gurobi 6.0.0 (win64) logging started 12/10/14 10:27:52


Gurobi 6.0.0 (win64) logging started 12/10/14 10:28:16


Gurobi 6.0.0 (win64) logging started 12/10/14 10:28:55


Gurobi 6.0.0 (win64) logging started 12/10/14 10:29:28


Gurobi 6.0.0 (win64) logging started 12/10/14 10:30:13


Gurobi 6.0.0 (win64) logging started 12/10/14 10:31:55


Gurobi 6.0.0 (win64) logging started 12/10/14 10:32:05


Gurobi 6.0.0 (win64) logging started 12/10/14 10:32:27


Gurobi 6.0.0 (win64) logging started 12/10/14 10:32:44


Gurobi 6.0.0 (win64) logging started 12/10/14 10:33:12


Gurobi 6.0.0 (win64) logging started 12/10/14 10:33:28


Gurobi 6.0.0 (win64) logging started 12/10/14 10:35:03


Gurobi 6.0.0 (win64) logging started 12/10/14 10:36:04


Gurobi 5.6.3 (win64) logging started 12/10/14 10:41:47


Gurobi 5.6.3 (win64) logging started 12/10/14 10:44:13


Gurobi 6.0.0 (win64) logging started 12/10/14 11:00:54


Gurobi 6.0.0 (win64) logging started 12/10/14 11:03:27


Gurobi 6.0.0 (win64) logging started 12/10/14 11:04:19


Gurobi 6.0.0 (win64) logging started 12/10/14 11:04:58


Gurobi 6.0.0 (win64) logging started 12/10/14 11:05:14


Gurobi 6.0.0 (win64) logging started 12/10/14 11:06:01


Gurobi 6.0.0 (win64) logging started 12/10/14 11:06:25


Gurobi 6.0.0 (win64) logging started 12/10/14 11:14:23

